NAME: random-55-30872
TYPE: TSP
COMMENT: size=55 seed=30872
DIMENSION: 112
EDGE_WEIGHT_TYPE: EUC_2D
NODE_COORD_SECTION
+0 704 308
-0 704 308
+1 751 111
-1 924 437
+2 619 63
-2 847 235
+3 533 275
-3 114 872
+4 951 349
-4 588 903
+5 680 674
-5 494 476
+6 386 827
-6 495 427
+7 778 511
-7 943 362
+8 470 969
-8 892 925
+9 778 831
-9 923 46
+10 202 533
-10 773 713
+11 809 419
-11 963 488
+12 75 920
-12 911 460
+13 396 726
-13 619 700
+14 835 248
-14 517 173
+15 168 727
-15 842 625
+16 499 66
-16 192 529
+17 243 4
-17 177 659
+18 282 819
-18 242 122
+19 233 130
-19 277 649
+20 548 78
-20 105 181
+21 636 595
-21 544 370
+22 87 352
-22 183 224
+23 468 389
-23 288 853
+24 865 451
-24 778 440
+25 83 269
-25 210 281
+26 449 920
-26 507 244
+27 515 605
-27 77 85
+28 353 394
-28 90 91
+29 820 432
-29 688 442
+30 297 85
-30 444 846
+31 77 385
-31 298 478
+32 384 323
-32 623 170
+33 777 946
-33 54 969
+34 124 426
-34 943 384
+35 81 367
-35 193 973
+36 820 387
-36 514 55
+37 519 825
-37 309 966
+38 10 766
-38 703 834
+39 591 785
-39 583 448
+40 59 156
-40 290 162
+41 411 76
-41 438 520
+42 402 99
-42 722 941
+43 821 7
-43 97 614
+44 236 11
-44 737 552
+45 590 163
-45 653 994
+46 685 405
-46 452 900
+47 769 568
-47 12 603
+48 775 247
-48 902 958
+49 234 741
-49 827 924
+50 78 574
-50 971 104
+51 264 323
-51 775 769
+52 497 877
-52 28 517
+53 552 504
-53 19 821
+54 383 380
-54 586 917
+55 729 967
-55 599 908
PRECEDENCE_SECTION
+0 -0
+1 -1
+2 -2
+3 -3
+4 -4
+5 -5
+6 -6
+7 -7
+8 -8
+9 -9
+10 -10
+11 -11
+12 -12
+13 -13
+14 -14
+15 -15
+16 -16
+17 -17
+18 -18
+19 -19
+20 -20
+21 -21
+22 -22
+23 -23
+24 -24
+25 -25
+26 -26
+27 -27
+28 -28
+29 -29
+30 -30
+31 -31
+32 -32
+33 -33
+34 -34
+35 -35
+36 -36
+37 -37
+38 -38
+39 -39
+40 -40
+41 -41
+42 -42
+43 -43
+44 -44
+45 -45
+46 -46
+47 -47
+48 -48
+49 -49
+50 -50
+51 -51
+52 -52
+53 -53
+54 -54
+55 -55
EOF
